CMD:
./solvers/bin/cadical --plain --no-reduce -t 1600 ./data/cnfs//6s515rb1/6s515rb1.57.cnf

c --- [ banner ] -------------------------------------------------------------
c 
c CaDiCaL SAT Solver
c Copyright (c) 2016-2024
c A. Biere, M. Fleury, N. Froleyks, K. Fazekas, F. Pollitt, T. Faller
c JKU Linz, University of Freiburg, TU Wien
c 
c Version 2.1.3 5296d3d2a9bf48c154ab2acb5e44625776d821bf
c g++ (Gentoo 12.3.1_p20230526 p2) 12.3.1 20230526 -Wall -Wextra -O3 -DNDEBUG
c Sat Aug 9 07:26:21 PDT 2025 Linux cedar2.int.cedar.computecanada.ca 5.14.0-362.24.2.el9_3.x86_64 x86_64
c 
c --- [ limit ] --------------------------------------------------------------
c 
c setting time limit to 1600 seconds real time (due to '-t 1600')
c 
c --- [ parsing input ] ------------------------------------------------------
c 
c reading DIMACS file from './data/cnfs//6s515rb1/6s515rb1.57.cnf'
c opening file to read './data/cnfs//6s515rb1/6s515rb1.57.cnf'
c found 'p cnf 170023 455857' header
c parsed 455857 clauses in 0.07 seconds process time
c 
c --- [ options ] ------------------------------------------------------------
c 
c   --compact=false                (different from default 'true')
c   --decompose=false              (different from default 'true')
c   --deduplicate=false            (different from default 'true')
c   --elim=false                   (different from default 'true')
c   --probe=false                  (different from default 'true')
c   --reduce=false                 (different from default 'true')
c   --subsume=false                (different from default 'true')
c   --ternary=false                (different from default 'true')
c   --transred=false               (different from default 'true')
c   --vivify=false                 (different from default 'true')
c 
c --- [ solving ] ------------------------------------------------------------
c 
c time measured in process time since initialization
c 
c  seconds  reductions  redundant  irredundant
c         MB    restarts       trail       variables
c          level   conflicts       glue          remaining
c 
c *  0.07 76  0 0   0    0    0  0% 0 440741 158860 93%
c {  0.11 78  0 0   0    0    0  0% 0 440741 158860 93%
c i  0.11 78  1 0   0    1    0  7% 0 440741 158859 93%
c i  0.12 78 545 0   0   50   40 44% 1 440741 158654 93%
c i  0.12 78 546 0   0   57   46 44% 1 440741 158461 93%
c i  0.12 78 547 0   0   71   58 43% 1 440741 158268 93%
c i  0.12 78 547 0   0   73   59 43% 1 440741 158262 93%
c i  0.12 78 548 0   0   94   74 43% 1 440741 158256 93%
c i  0.13 78 531 0   1  124   99 42% 1 440741 158255 93%
c i  0.13 78 531 0   1  125   99 42% 1 440741 158254 93%
c i  0.22 79 977 0   8  425  324 57% 2 440741 158253 93%
c i  0.22 79 942 0  12  439  337 55% 2 440741 158211 93%
c }  0.38 80 468 0 110 1001  834 37% 2 440741 158211 93%
c [  0.38 80  0 0 110 1001  834  0% 0 440741 158211 93%
c F  0.39 80 884 0 110 1002  835 24% 1 440741 158211 93%
c i  0.43 80 1248 0 110 1145  941 45% 2 440741 155961 92%
c i  0.43 80 1197 0 110 1152  947 45% 2 440741 155835 92%
c i  0.43 80 1176 0 110 1155  948 44% 2 440741 155827 92%
c i  0.43 80 1143 0 110 1161  952 44% 2 440741 155573 92%
c i  0.43 80 925 0 110 1212  986 40% 2 440741 153174 90%
c 
c  seconds   reductions  redundant  irredundant
c         MB     restarts       trail       variables
c           level   conflicts       glue          remaining
c 
c i  0.44 80 899 0 110 1219  990 39% 2 440741 152918 90%
c i  0.44 80 895 0 110 1221  990 39% 2 440741 152866 90%
c i  0.44 80 879 0 110 1225  993 38% 2 440741 152862 90%
c i  0.44 80 848 0 110 1233  998 37% 2 440741 152858 90%
c i  0.44 80 734 0 110 1268 1026 34% 2 440741 152332 90%
c i  0.44 80 731 0 110 1269 1026 34% 2 440741 152328 90%
c i  0.44 80 720 0 110 1273 1029 34% 2 440741 152200 90%
c i  0.44 80 715 0 110 1275 1030 34% 2 440741 152068 89%
c i  0.44 80 712 0 110 1276 1030 34% 2 440741 152064 89%
c i  0.44 80 704 0 110 1279 1031 33% 2 440741 152028 89%
c i  0.44 80 691 0 110 1284 1035 33% 2 440741 151992 89%
c i  0.44 80 618 0 110 1320 1066 31% 2 440741 151825 89%
c ]  0.44 80 610 0 110 1325 1069 31% 2 440741 151591 89%
c 0  0.44 80 610 0 110 1325 1069 31% 2 440741 151591 89%
c 
c --- [ result ] -------------------------------------------------------------
c 
s UNSATISFIABLE
c 
c --- [ run-time profiling ] -------------------------------------------------
c 
c process time taken by individual solving procedures
c (percentage relative to process time for solving)
c 
c         0.38   99.98% search
c         0.27   72.69% unstable
c         0.07   17.42% parse
c         0.06   16.72% stable
c         0.04   10.56% lucky
c         0.00    0.00% simplify
c   =================================
c         0.38   85.06% solve
c 
c last line shows process time for solving
c (percentage relative to total process time)
c 
c --- [ statistics ] ---------------------------------------------------------
c 
c chronological:               813        61.36 %  of conflicts
c conflicts:                  1325      3505.49    per second
c decisions:                 21079     55767.65    per second
c fixed:                     17920        10.54 %  of all variables
c learned:                    1177        88.83 %  per conflict
c learned_lits:              10428       100.00 %  learned literals
c minimized:                     0         0.00 %  learned literals
c shrunken:                    969         9.29 %  learned literals
c minishrunken:                165         1.58 %  learned literals
c otfs:                         69         5.21 %  of conflict
c propagations:            4928920        13.04 M  per second
c rephased:                      1      1325.00    interval
c restarts:                    110        12.05    interval
c stabilizing:                   1        24.45 %  of conflicts
c subsumed:                     77         0.02 %  of all clauses
c strengthened:                 69         0.02 %  of all clauses
c 
c seconds are measured in process time for solving
c 
c --- [ resources ] ----------------------------------------------------------
c 
c total process time since initialization:         0.44    seconds
c total real time since initialization:            0.45    seconds
c maximum resident set size of process:           78.29    MB
c 
c --- [ shutting down ] ------------------------------------------------------
c 
c exit 20
